7

0   7   1   11   11   5   24
7   0   16   10   13   13   0
1   16   0   9   3   1   4
11   10   9   0   23   12   19
11   13   3   23   0   4   2
5   13   1   12   4   0   8
24   0   4   19   2   8   0

0   14   26   40   49   11   19
14   0   20   54   63   17   5
26   20   0   38   47   37   21
40   54   38   0   21   39   59
49   63   47   21   0   48   68
11   17   37   39   48   0   22
19   5   21   59   68   22   0